500
400 400
1 320 823
2 320 810
3 320 540
4 319 553
5 319 967
6 319 662
7 318 790
8 318 306
9 317 654
10 317 668
11 316 114
12 316 256
13 316 654
14 315 111
15 313 727
16 313 88
17 312 549
18 312 876
19 311 667
20 311 733
21 311 201
22 310 624
23 310 548
24 309 882
25 308 999
26 307 182
27 307 247
28 306 963
29 305 586
30 305 638
31 305 48
32 305 27
33 305 367
34 304 229
35 304 967
36 304 456
37 304 248
38 304 127
39 303 972
40 303 152
41 303 819
42 303 133
43 302 388
44 301 234
45 300 727
46 300 913
47 300 487
48 299 612
49 299 828
50 299 207
51 299 997
52 298 25
53 298 507
54 297 505
55 297 801
56 296 257
57 296 155
58 295 711
59 294 618
60 294 8
61 293 520
62 290 447
63 290 867
64 290 748
65 289 150
66 289 735
67 288 9
68 287 160
69 285 438
70 285 944
71 285 627
72 285 649
73 285 921
74 283 341
75 283 952
76 282 504
77 281 597
78 281 0
79 281 581
80 280 717
81 280 527
82 279 327
83 279 644
84 279 922
85 278 816
86 278 798
87 277 511
88 275 953
89 275 858
90 273 290
91 273 598
92 273 633
93 273 682
94 272 565
95 272 729
96 272 437
97 271 676
98 271 823
99 270 121
100 269 218
101 269 927
102 268 341
103 268 650
104 268 434
105 267 792
106 267 184
107 267 604
108 266 570
109 265 821
110 265 568
111 264 99
112 264 196
113 264 294
114 263 70
115 263 491
116 262 32
117 262 794
118 261 424
119 261 299
120 260 294
121 260 117
122 258 440
123 257 381
124 257 423
125 256 920
126 255 54
127 255 605
128 255 779
129 253 659
130 253 278
131 253 764
132 252 689
133 252 277
134 251 70
135 251 877
136 251 42
137 251 656
138 251 871
139 250 974
140 250 507
141 250 210
142 249 626
143 249 173
144 249 323
145 249 639
146 248 375
147 248 700
148 248 408
149 247 664
150 247 362
151 247 155
152 246 886
153 246 940
154 245 756
155 245 278
156 245 374
157 244 860
158 244 505
159 244 860
160 243 657
161 243 818
162 242 735
163 241 100
164 241 134
165 241 380
166 240 351
167 240 659
168 240 504
169 239 886
170 239 74
171 239 924
172 238 708
173 238 368
174 237 500
175 236 708
176 234 940
177 234 560
178 233 52
179 233 604
180 233 391
181 232 226
182 232 392
183 231 321
184 231 880
185 231 120
186 230 944
187 230 169
188 230 90
189 230 674
190 230 889
191 228 744
192 228 939
193 227 796
194 227 266
195 227 582
196 226 229
197 225 683
198 225 952
199 224 558
200 224 185
201 222 330
202 222 649
203 221 249
204 221 780
205 220 565
206 220 830
207 220 29
208 219 944
209 219 231
210 219 681
211 219 988
212 218 196
213 218 266
214 218 801
215 218 659
216 216 30
217 216 434
218 216 544
219 215 601
220 214 95
221 214 375
222 213 495
223 213 240
224 213 946
225 212 529
226 212 37
227 212 844
228 209 484
229 209 657
230 209 48
231 208 202
232 207 198
233 206 476
234 206 249
235 206 135
236 206 384
237 205 444
238 205 754
239 204 606
240 204 617
241 204 398
242 203 738
243 203 360
244 202 914
245 202 625
246 202 341
247 201 542
248 200 990
249 199 905
250 199 596
251 199 519
252 199 190
253 198 252
254 198 612
255 198 708
256 198 962
257 198 815
258 197 811
259 196 99
260 196 375
261 196 553
262 195 45
263 195 738
264 195 963
265 193 406
266 192 231
267 192 655
268 191 499
269 190 263
270 190 906
271 190 138
272 189 366
273 188 266
274 188 321
275 188 134
276 186 920
277 186 470
278 185 977
279 185 934
280 185 998
281 184 543
282 184 864
283 183 455
284 183 163
285 181 996
286 181 772
287 180 978
288 180 709
289 179 195
290 179 144
291 179 9
292 178 16
293 178 306
294 178 892
295 177 123
296 176 418
297 175 80
298 175 493
299 174 950
300 174 316
301 174 585
302 173 847
303 173 467
304 172 923
305 172 853
306 172 988
307 171 328
308 171 684
309 171 770
310 171 191
311 169 311
312 169 926
313 167 307
314 166 396
315 166 789
316 166 539
317 164 768
318 164 523
319 164 199
320 162 587
321 162 265
322 162 254
323 162 382
324 162 2
325 162 906
326 161 483
327 161 615
328 161 756
329 161 560
330 160 809
331 160 631
332 160 700
333 160 527
334 160 660
335 159 950
336 159 460
337 158 681
338 158 185
339 157 244
340 157 846
341 157 677
342 157 859
343 157 373
344 154 968
345 154 686
346 152 870
347 152 910
348 152 922
349 151 43
350 151 463
351 150 473
352 150 344
353 150 972
354 149 654
355 149 211
356 148 797
357 147 434
358 147 675
359 147 163
360 146 967
361 145 929
362 144 13
363 144 759
364 144 261
365 144 221
366 143 131
367 143 581
368 142 649
369 142 889
370 141 422
371 141 140
372 141 206
373 141 964
374 141 325
375 141 33
376 140 156
377 140 128
378 139 229
379 139 649
380 138 352
381 137 558
382 137 515
383 136 194
384 136 671
385 136 480
386 136 330
387 135 751
388 135 840
389 135 845
390 134 644
391 134 290
392 133 682
393 132 821
394 132 856
395 132 737
396 131 250
397 130 869
398 129 974
399 129 191
400 129 460
401 128 746
402 127 405
403 127 776
404 127 908
405 127 636
406 127 208
407 126 526
408 125 915
409 124 954
410 124 335
411 124 486
412 124 917
413 123 1
414 122 757
415 122 346
416 121 211
417 121 684
418 120 637
419 120 284
420 119 970
421 119 593
422 119 451
423 118 718
424 117 359
425 116 603
426 116 754
427 116 250
428 115 849
429 115 131
430 114 995
431 114 838
432 113 721
433 113 313
434 112 596
435 110 537
436 110 556
437 110 780
438 110 907
439 110 695
440 108 847
441 108 841
442 108 985
443 108 55
444 107 205
445 106 650
446 106 287
447 106 609
448 106 209
449 105 521
450 105 808
451 105 758
452 104 869
453 103 502
454 102 232
455 102 881
456 102 996
457 101 810
458 101 407
459 101 995
460 100 539
461 100 852
462 100 155
463 99 711
464 98 18
465 97 44
466 97 755
467 96 294
468 96 194
469 95 326
470 94 72
471 94 144
472 93 842
473 93 323
474 92 155
475 92 534
476 91 641
477 90 799
478 90 672
479 89 911
480 89 583
481 87 954
482 87 996
483 87 300
484 86 283
485 86 173
486 86 305
487 85 286
488 85 144
489 85 413
490 84 201
491 84 578
492 83 299
493 83 381
494 83 581
495 82 482
496 82 749
497 81 671
498 80 950
499 80 562
500 80 608
